p cnf 612 1887
7 0
13 0
19 0
25 0
31 0
14 0
20 0
26 0
32 0
21 0
27 0
33 0
28 0
34 0
35 0
-7 -14 13 0
-7 -20 19 0
-7 -26 25 0
-7 -32 31 0
-13 -9 7 0
-13 -21 19 0
-13 -27 25 0
-13 -33 31 0
-19 -10 7 0
-19 -16 13 0
-19 -28 25 0
-19 -34 31 0
-25 -11 7 0
-25 -17 13 0
-25 -23 19 0
-25 -35 31 0
-31 -12 7 0
-31 -18 13 0
-31 -24 19 0
-31 -30 25 0
-2 -13 14 0
-2 -19 20 0
-2 -25 26 0
-2 -31 32 0
-14 -3 2 0
-14 -21 20 0
-14 -27 26 0
-14 -33 32 0
-20 -4 2 0
-20 -16 14 0
-20 -28 26 0
-20 -34 32 0
-26 -5 2 0
-26 -17 14 0
-26 -23 20 0
-26 -35 32 0
-32 -6 2 0
-32 -18 14 0
-32 -24 20 0
-32 -30 26 0
-3 -7 9 0
-3 -19 21 0
-3 -25 27 0
-3 -31 33 0
-9 -2 3 0
-9 -20 21 0
-9 -26 27 0
-9 -32 33 0
-21 -4 3 0
-21 -10 9 0
-21 -28 27 0
-21 -34 33 0
-27 -5 3 0
-27 -11 9 0
-27 -23 21 0
-27 -35 33 0
-33 -6 3 0
-33 -12 9 0
-33 -24 21 0
-33 -30 27 0
-4 -7 10 0
-4 -13 16 0
-4 -25 28 0
-4 -31 34 0
-10 -2 4 0
-10 -14 16 0
-10 -26 28 0
-10 -32 34 0
-16 -3 4 0
-16 -9 10 0
-16 -27 28 0
-16 -33 34 0
-28 -5 4 0
-28 -11 10 0
-28 -17 16 0
-28 -35 34 0
-34 -6 4 0
-34 -12 10 0
-34 -18 16 0
-34 -30 28 0
-5 -7 11 0
-5 -13 17 0
-5 -19 23 0
-5 -31 35 0
-11 -2 5 0
-11 -14 17 0
-11 -20 23 0
-11 -32 35 0
-17 -3 5 0
-17 -9 11 0
-17 -21 23 0
-17 -33 35 0
-23 -4 5 0
-23 -10 11 0
-23 -16 17 0
-23 -34 35 0
-35 -6 5 0
-35 -12 11 0
-35 -18 17 0
-35 -24 23 0
-6 -7 12 0
-6 -13 18 0
-6 -19 24 0
-6 -25 30 0
-12 -2 6 0
-12 -14 18 0
-12 -20 24 0
-12 -26 30 0
-18 -3 6 0
-18 -9 12 0
-18 -21 24 0
-18 -27 30 0
-24 -4 6 0
-24 -10 12 0
-24 -16 18 0
-24 -28 30 0
-30 -5 6 0
-30 -11 12 0
-30 -17 18 0
-30 -23 24 0
-43 -50 49 0
-43 -56 55 0
-43 -62 61 0
-43 -68 67 0
-49 -45 43 0
-49 -57 55 0
-49 -63 61 0
-49 -69 67 0
-55 -46 43 0
-55 -52 49 0
-55 -64 61 0
-55 -70 67 0
-61 -47 43 0
-61 -53 49 0
-61 -59 55 0
-61 -71 67 0
-67 -48 43 0
-67 -54 49 0
-67 -60 55 0
-67 -66 61 0
-38 -49 50 0
-38 -55 56 0
-38 -61 62 0
-38 -67 68 0
-50 -39 38 0
-50 -57 56 0
-50 -63 62 0
-50 -69 68 0
-56 -40 38 0
-56 -52 50 0
-56 -64 62 0
-56 -70 68 0
-62 -41 38 0
-62 -53 50 0
-62 -59 56 0
-62 -71 68 0
-68 -42 38 0
-68 -54 50 0
-68 -60 56 0
-68 -66 62 0
-39 -43 45 0
-39 -55 57 0
-39 -61 63 0
-39 -67 69 0
-45 -38 39 0
-45 -56 57 0
-45 -62 63 0
-45 -68 69 0
-57 -40 39 0
-57 -46 45 0
-57 -64 63 0
-57 -70 69 0
-63 -41 39 0
-63 -47 45 0
-63 -59 57 0
-63 -71 69 0
-69 -42 39 0
-69 -48 45 0
-69 -60 57 0
-69 -66 63 0
-40 -43 46 0
-40 -49 52 0
-40 -61 64 0
-40 -67 70 0
-46 -38 40 0
-46 -50 52 0
-46 -62 64 0
-46 -68 70 0
-52 -39 40 0
-52 -45 46 0
-52 -63 64 0
-52 -69 70 0
-64 -41 40 0
-64 -47 46 0
-64 -53 52 0
-64 -71 70 0
-70 -42 40 0
-70 -48 46 0
-70 -54 52 0
-70 -66 64 0
-41 -43 47 0
-41 -49 53 0
-41 -55 59 0
-41 -67 71 0
-47 -38 41 0
-47 -50 53 0
-47 -56 59 0
-47 -68 71 0
-53 -39 41 0
-53 -45 47 0
-53 -57 59 0
-53 -69 71 0
-59 -40 41 0
-59 -46 47 0
-59 -52 53 0
-59 -70 71 0
-71 -42 41 0
-71 -48 47 0
-71 -54 53 0
-71 -60 59 0
-42 -43 48 0
-42 -49 54 0
-42 -55 60 0
-42 -61 66 0
-48 -38 42 0
-48 -50 54 0
-48 -56 60 0
-48 -62 66 0
-54 -39 42 0
-54 -45 48 0
-54 -57 60 0
-54 -63 66 0
-60 -40 42 0
-60 -46 48 0
-60 -52 54 0
-60 -64 66 0
-66 -41 42 0
-66 -47 48 0
-66 -53 54 0
-66 -59 60 0
-79 -86 85 0
-79 -92 91 0
-79 -98 97 0
-79 -104 103 0
-85 -81 79 0
-85 -93 91 0
-85 -99 97 0
-85 -105 103 0
-91 -82 79 0
-91 -88 85 0
-91 -100 97 0
-91 -106 103 0
-97 -83 79 0
-97 -89 85 0
-97 -95 91 0
-97 -107 103 0
-103 -84 79 0
-103 -90 85 0
-103 -96 91 0
-103 -102 97 0
-74 -85 86 0
-74 -91 92 0
-74 -97 98 0
-74 -103 104 0
-86 -75 74 0
-86 -93 92 0
-86 -99 98 0
-86 -105 104 0
-92 -76 74 0
-92 -88 86 0
-92 -100 98 0
-92 -106 104 0
-98 -77 74 0
-98 -89 86 0
-98 -95 92 0
-98 -107 104 0
-104 -78 74 0
-104 -90 86 0
-104 -96 92 0
-104 -102 98 0
-75 -79 81 0
-75 -91 93 0
-75 -97 99 0
-75 -103 105 0
-81 -74 75 0
-81 -92 93 0
-81 -98 99 0
-81 -104 105 0
-93 -76 75 0
-93 -82 81 0
-93 -100 99 0
-93 -106 105 0
-99 -77 75 0
-99 -83 81 0
-99 -95 93 0
-99 -107 105 0
-105 -78 75 0
-105 -84 81 0
-105 -96 93 0
-105 -102 99 0
-76 -79 82 0
-76 -85 88 0
-76 -97 100 0
-76 -103 106 0
-82 -74 76 0
-82 -86 88 0
-82 -98 100 0
-82 -104 106 0
-88 -75 76 0
-88 -81 82 0
-88 -99 100 0
-88 -105 106 0
-100 -77 76 0
-100 -83 82 0
-100 -89 88 0
-100 -107 106 0
-106 -78 76 0
-106 -84 82 0
-106 -90 88 0
-106 -102 100 0
-77 -79 83 0
-77 -85 89 0
-77 -91 95 0
-77 -103 107 0
-83 -74 77 0
-83 -86 89 0
-83 -92 95 0
-83 -104 107 0
-89 -75 77 0
-89 -81 83 0
-89 -93 95 0
-89 -105 107 0
-95 -76 77 0
-95 -82 83 0
-95 -88 89 0
-95 -106 107 0
-107 -78 77 0
-107 -84 83 0
-107 -90 89 0
-107 -96 95 0
-78 -79 84 0
-78 -85 90 0
-78 -91 96 0
-78 -97 102 0
-84 -74 78 0
-84 -86 90 0
-84 -92 96 0
-84 -98 102 0
-90 -75 78 0
-90 -81 84 0
-90 -93 96 0
-90 -99 102 0
-96 -76 78 0
-96 -82 84 0
-96 -88 90 0
-96 -100 102 0
-102 -77 78 0
-102 -83 84 0
-102 -89 90 0
-102 -95 96 0
-115 -122 121 0
-115 -128 127 0
-115 -134 133 0
-115 -140 139 0
-121 -117 115 0
-121 -129 127 0
-121 -135 133 0
-121 -141 139 0
-127 -118 115 0
-127 -124 121 0
-127 -136 133 0
-127 -142 139 0
-133 -119 115 0
-133 -125 121 0
-133 -131 127 0
-133 -143 139 0
-139 -120 115 0
-139 -126 121 0
-139 -132 127 0
-139 -138 133 0
-110 -121 122 0
-110 -127 128 0
-110 -133 134 0
-110 -139 140 0
-122 -111 110 0
-122 -129 128 0
-122 -135 134 0
-122 -141 140 0
-128 -112 110 0
-128 -124 122 0
-128 -136 134 0
-128 -142 140 0
-134 -113 110 0
-134 -125 122 0
-134 -131 128 0
-134 -143 140 0
-140 -114 110 0
-140 -126 122 0
-140 -132 128 0
-140 -138 134 0
-111 -115 117 0
-111 -127 129 0
-111 -133 135 0
-111 -139 141 0
-117 -110 111 0
-117 -128 129 0
-117 -134 135 0
-117 -140 141 0
-129 -112 111 0
-129 -118 117 0
-129 -136 135 0
-129 -142 141 0
-135 -113 111 0
-135 -119 117 0
-135 -131 129 0
-135 -143 141 0
-141 -114 111 0
-141 -120 117 0
-141 -132 129 0
-141 -138 135 0
-112 -115 118 0
-112 -121 124 0
-112 -133 136 0
-112 -139 142 0
-118 -110 112 0
-118 -122 124 0
-118 -134 136 0
-118 -140 142 0
-124 -111 112 0
-124 -117 118 0
-124 -135 136 0
-124 -141 142 0
-136 -113 112 0
-136 -119 118 0
-136 -125 124 0
-136 -143 142 0
-142 -114 112 0
-142 -120 118 0
-142 -126 124 0
-142 -138 136 0
-113 -115 119 0
-113 -121 125 0
-113 -127 131 0
-113 -139 143 0
-119 -110 113 0
-119 -122 125 0
-119 -128 131 0
-119 -140 143 0
-125 -111 113 0
-125 -117 119 0
-125 -129 131 0
-125 -141 143 0
-131 -112 113 0
-131 -118 119 0
-131 -124 125 0
-131 -142 143 0
-143 -114 113 0
-143 -120 119 0
-143 -126 125 0
-143 -132 131 0
-114 -115 120 0
-114 -121 126 0
-114 -127 132 0
-114 -133 138 0
-120 -110 114 0
-120 -122 126 0
-120 -128 132 0
-120 -134 138 0
-126 -111 114 0
-126 -117 120 0
-126 -129 132 0
-126 -135 138 0
-132 -112 114 0
-132 -118 120 0
-132 -124 126 0
-132 -136 138 0
-138 -113 114 0
-138 -119 120 0
-138 -125 126 0
-138 -131 132 0
-151 -158 157 0
-151 -164 163 0
-151 -170 169 0
-151 -176 175 0
-157 -153 151 0
-157 -165 163 0
-157 -171 169 0
-157 -177 175 0
-163 -154 151 0
-163 -160 157 0
-163 -172 169 0
-163 -178 175 0
-169 -155 151 0
-169 -161 157 0
-169 -167 163 0
-169 -179 175 0
-175 -156 151 0
-175 -162 157 0
-175 -168 163 0
-175 -174 169 0
-146 -157 158 0
-146 -163 164 0
-146 -169 170 0
-146 -175 176 0
-158 -147 146 0
-158 -165 164 0
-158 -171 170 0
-158 -177 176 0
-164 -148 146 0
-164 -160 158 0
-164 -172 170 0
-164 -178 176 0
-170 -149 146 0
-170 -161 158 0
-170 -167 164 0
-170 -179 176 0
-176 -150 146 0
-176 -162 158 0
-176 -168 164 0
-176 -174 170 0
-147 -151 153 0
-147 -163 165 0
-147 -169 171 0
-147 -175 177 0
-153 -146 147 0
-153 -164 165 0
-153 -170 171 0
-153 -176 177 0
-165 -148 147 0
-165 -154 153 0
-165 -172 171 0
-165 -178 177 0
-171 -149 147 0
-171 -155 153 0
-171 -167 165 0
-171 -179 177 0
-177 -150 147 0
-177 -156 153 0
-177 -168 165 0
-177 -174 171 0
-148 -151 154 0
-148 -157 160 0
-148 -169 172 0
-148 -175 178 0
-154 -146 148 0
-154 -158 160 0
-154 -170 172 0
-154 -176 178 0
-160 -147 148 0
-160 -153 154 0
-160 -171 172 0
-160 -177 178 0
-172 -149 148 0
-172 -155 154 0
-172 -161 160 0
-172 -179 178 0
-178 -150 148 0
-178 -156 154 0
-178 -162 160 0
-178 -174 172 0
-149 -151 155 0
-149 -157 161 0
-149 -163 167 0
-149 -175 179 0
-155 -146 149 0
-155 -158 161 0
-155 -164 167 0
-155 -176 179 0
-161 -147 149 0
-161 -153 155 0
-161 -165 167 0
-161 -177 179 0
-167 -148 149 0
-167 -154 155 0
-167 -160 161 0
-167 -178 179 0
-179 -150 149 0
-179 -156 155 0
-179 -162 161 0
-179 -168 167 0
-150 -151 156 0
-150 -157 162 0
-150 -163 168 0
-150 -169 174 0
-156 -146 150 0
-156 -158 162 0
-156 -164 168 0
-156 -170 174 0
-162 -147 150 0
-162 -153 156 0
-162 -165 168 0
-162 -171 174 0
-168 -148 150 0
-168 -154 156 0
-168 -160 162 0
-168 -172 174 0
-174 -149 150 0
-174 -155 156 0
-174 -161 162 0
-174 -167 168 0
-187 -194 193 0
-187 -200 199 0
-187 -206 205 0
-187 -212 211 0
-193 -189 187 0
-193 -201 199 0
-193 -207 205 0
-193 -213 211 0
-199 -190 187 0
-199 -196 193 0
-199 -208 205 0
-199 -214 211 0
-205 -191 187 0
-205 -197 193 0
-205 -203 199 0
-205 -215 211 0
-211 -192 187 0
-211 -198 193 0
-211 -204 199 0
-211 -210 205 0
-182 -193 194 0
-182 -199 200 0
-182 -205 206 0
-182 -211 212 0
-194 -183 182 0
-194 -201 200 0
-194 -207 206 0
-194 -213 212 0
-200 -184 182 0
-200 -196 194 0
-200 -208 206 0
-200 -214 212 0
-206 -185 182 0
-206 -197 194 0
-206 -203 200 0
-206 -215 212 0
-212 -186 182 0
-212 -198 194 0
-212 -204 200 0
-212 -210 206 0
-183 -187 189 0
-183 -199 201 0
-183 -205 207 0
-183 -211 213 0
-189 -182 183 0
-189 -200 201 0
-189 -206 207 0
-189 -212 213 0
-201 -184 183 0
-201 -190 189 0
-201 -208 207 0
-201 -214 213 0
-207 -185 183 0
-207 -191 189 0
-207 -203 201 0
-207 -215 213 0
-213 -186 183 0
-213 -192 189 0
-213 -204 201 0
-213 -210 207 0
-184 -187 190 0
-184 -193 196 0
-184 -205 208 0
-184 -211 214 0
-190 -182 184 0
-190 -194 196 0
-190 -206 208 0
-190 -212 214 0
-196 -183 184 0
-196 -189 190 0
-196 -207 208 0
-196 -213 214 0
-208 -185 184 0
-208 -191 190 0
-208 -197 196 0
-208 -215 214 0
-214 -186 184 0
-214 -192 190 0
-214 -198 196 0
-214 -210 208 0
-185 -187 191 0
-185 -193 197 0
-185 -199 203 0
-185 -211 215 0
-191 -182 185 0
-191 -194 197 0
-191 -200 203 0
-191 -212 215 0
-197 -183 185 0
-197 -189 191 0
-197 -201 203 0
-197 -213 215 0
-203 -184 185 0
-203 -190 191 0
-203 -196 197 0
-203 -214 215 0
-215 -186 185 0
-215 -192 191 0
-215 -198 197 0
-215 -204 203 0
-186 -187 192 0
-186 -193 198 0
-186 -199 204 0
-186 -205 210 0
-192 -182 186 0
-192 -194 198 0
-192 -200 204 0
-192 -206 210 0
-198 -183 186 0
-198 -189 192 0
-198 -201 204 0
-198 -207 210 0
-204 -184 186 0
-204 -190 192 0
-204 -196 198 0
-204 -208 210 0
-210 -185 186 0
-210 -191 192 0
-210 -197 198 0
-210 -203 204 0
7 2 0
-7 -2 0
13 3 0
-13 -3 0
19 4 0
-19 -4 0
25 5 0
-25 -5 0
31 6 0
-31 -6 0
2 7 0
-2 -7 0
14 9 0
-14 -9 0
20 10 0
-20 -10 0
26 11 0
-26 -11 0
32 12 0
-32 -12 0
3 13 0
-3 -13 0
9 14 0
-9 -14 0
21 16 0
-21 -16 0
27 17 0
-27 -17 0
33 18 0
-33 -18 0
4 19 0
-4 -19 0
10 20 0
-10 -20 0
16 21 0
-16 -21 0
28 23 0
-28 -23 0
34 24 0
-34 -24 0
5 25 0
-5 -25 0
11 26 0
-11 -26 0
17 27 0
-17 -27 0
23 28 0
-23 -28 0
35 30 0
-35 -30 0
6 31 0
-6 -31 0
12 32 0
-12 -32 0
18 33 0
-18 -33 0
24 34 0
-24 -34 0
30 35 0
-30 -35 0
43 38 0
-43 -38 0
49 39 0
-49 -39 0
55 40 0
-55 -40 0
61 41 0
-61 -41 0
67 42 0
-67 -42 0
38 43 0
-38 -43 0
50 45 0
-50 -45 0
56 46 0
-56 -46 0
62 47 0
-62 -47 0
68 48 0
-68 -48 0
39 49 0
-39 -49 0
45 50 0
-45 -50 0
57 52 0
-57 -52 0
63 53 0
-63 -53 0
69 54 0
-69 -54 0
40 55 0
-40 -55 0
46 56 0
-46 -56 0
52 57 0
-52 -57 0
64 59 0
-64 -59 0
70 60 0
-70 -60 0
41 61 0
-41 -61 0
47 62 0
-47 -62 0
53 63 0
-53 -63 0
59 64 0
-59 -64 0
71 66 0
-71 -66 0
42 67 0
-42 -67 0
48 68 0
-48 -68 0
54 69 0
-54 -69 0
60 70 0
-60 -70 0
66 71 0
-66 -71 0
79 74 0
-79 -74 0
85 75 0
-85 -75 0
91 76 0
-91 -76 0
97 77 0
-97 -77 0
103 78 0
-103 -78 0
74 79 0
-74 -79 0
86 81 0
-86 -81 0
92 82 0
-92 -82 0
98 83 0
-98 -83 0
104 84 0
-104 -84 0
75 85 0
-75 -85 0
81 86 0
-81 -86 0
93 88 0
-93 -88 0
99 89 0
-99 -89 0
105 90 0
-105 -90 0
76 91 0
-76 -91 0
82 92 0
-82 -92 0
88 93 0
-88 -93 0
100 95 0
-100 -95 0
106 96 0
-106 -96 0
77 97 0
-77 -97 0
83 98 0
-83 -98 0
89 99 0
-89 -99 0
95 100 0
-95 -100 0
107 102 0
-107 -102 0
78 103 0
-78 -103 0
84 104 0
-84 -104 0
90 105 0
-90 -105 0
96 106 0
-96 -106 0
102 107 0
-102 -107 0
115 110 0
-115 -110 0
121 111 0
-121 -111 0
127 112 0
-127 -112 0
133 113 0
-133 -113 0
139 114 0
-139 -114 0
110 115 0
-110 -115 0
122 117 0
-122 -117 0
128 118 0
-128 -118 0
134 119 0
-134 -119 0
140 120 0
-140 -120 0
111 121 0
-111 -121 0
117 122 0
-117 -122 0
129 124 0
-129 -124 0
135 125 0
-135 -125 0
141 126 0
-141 -126 0
112 127 0
-112 -127 0
118 128 0
-118 -128 0
124 129 0
-124 -129 0
136 131 0
-136 -131 0
142 132 0
-142 -132 0
113 133 0
-113 -133 0
119 134 0
-119 -134 0
125 135 0
-125 -135 0
131 136 0
-131 -136 0
143 138 0
-143 -138 0
114 139 0
-114 -139 0
120 140 0
-120 -140 0
126 141 0
-126 -141 0
132 142 0
-132 -142 0
138 143 0
-138 -143 0
151 146 0
-151 -146 0
157 147 0
-157 -147 0
163 148 0
-163 -148 0
169 149 0
-169 -149 0
175 150 0
-175 -150 0
146 151 0
-146 -151 0
158 153 0
-158 -153 0
164 154 0
-164 -154 0
170 155 0
-170 -155 0
176 156 0
-176 -156 0
147 157 0
-147 -157 0
153 158 0
-153 -158 0
165 160 0
-165 -160 0
171 161 0
-171 -161 0
177 162 0
-177 -162 0
148 163 0
-148 -163 0
154 164 0
-154 -164 0
160 165 0
-160 -165 0
172 167 0
-172 -167 0
178 168 0
-178 -168 0
149 169 0
-149 -169 0
155 170 0
-155 -170 0
161 171 0
-161 -171 0
167 172 0
-167 -172 0
179 174 0
-179 -174 0
150 175 0
-150 -175 0
156 176 0
-156 -176 0
162 177 0
-162 -177 0
168 178 0
-168 -178 0
174 179 0
-174 -179 0
187 182 0
-187 -182 0
193 183 0
-193 -183 0
199 184 0
-199 -184 0
205 185 0
-205 -185 0
211 186 0
-211 -186 0
182 187 0
-182 -187 0
194 189 0
-194 -189 0
200 190 0
-200 -190 0
206 191 0
-206 -191 0
212 192 0
-212 -192 0
183 193 0
-183 -193 0
189 194 0
-189 -194 0
201 196 0
-201 -196 0
207 197 0
-207 -197 0
213 198 0
-213 -198 0
184 199 0
-184 -199 0
190 200 0
-190 -200 0
196 201 0
-196 -201 0
208 203 0
-208 -203 0
214 204 0
-214 -204 0
185 205 0
-185 -205 0
191 206 0
-191 -206 0
197 207 0
-197 -207 0
203 208 0
-203 -208 0
215 210 0
-215 -210 0
186 211 0
-186 -211 0
192 212 0
-192 -212 0
198 213 0
-198 -213 0
204 214 0
-204 -214 0
210 215 0
-210 -215 0
-469 -481 0
-469 -493 0
-469 -505 0
-469 -517 0
-481 -493 0
-481 -505 0
-481 -517 0
-493 -505 0
-493 -517 0
-505 -517 0
-470 -482 0
-470 -494 0
-470 -506 0
-470 -518 0
-482 -494 0
-482 -506 0
-482 -518 0
-494 -506 0
-494 -518 0
-506 -518 0
-471 -483 0
-471 -495 0
-471 -507 0
-471 -519 0
-483 -495 0
-483 -507 0
-483 -519 0
-495 -507 0
-495 -519 0
-507 -519 0
-472 -484 0
-472 -496 0
-472 -508 0
-472 -520 0
-484 -496 0
-484 -508 0
-484 -520 0
-496 -508 0
-496 -520 0
-508 -520 0
-473 -485 0
-473 -497 0
-473 -509 0
-473 -521 0
-485 -497 0
-485 -509 0
-485 -521 0
-497 -509 0
-497 -521 0
-509 -521 0
-474 -486 0
-474 -498 0
-474 -510 0
-474 -522 0
-486 -498 0
-486 -510 0
-486 -522 0
-498 -510 0
-498 -522 0
-510 -522 0
-475 -487 0
-475 -499 0
-475 -511 0
-475 -523 0
-487 -499 0
-487 -511 0
-487 -523 0
-499 -511 0
-499 -523 0
-511 -523 0
-476 -488 0
-476 -500 0
-476 -512 0
-476 -524 0
-488 -500 0
-488 -512 0
-488 -524 0
-500 -512 0
-500 -524 0
-512 -524 0
-477 -489 0
-477 -501 0
-477 -513 0
-477 -525 0
-489 -501 0
-489 -513 0
-489 -525 0
-501 -513 0
-501 -525 0
-513 -525 0
-478 -490 0
-478 -502 0
-478 -514 0
-478 -526 0
-490 -502 0
-490 -514 0
-490 -526 0
-502 -514 0
-502 -526 0
-514 -526 0
-479 -491 0
-479 -503 0
-479 -515 0
-479 -527 0
-491 -503 0
-491 -515 0
-491 -527 0
-503 -515 0
-503 -527 0
-515 -527 0
-480 -492 0
-480 -504 0
-480 -516 0
-480 -528 0
-492 -504 0
-492 -516 0
-492 -528 0
-504 -516 0
-504 -528 0
-516 -528 0
469 481 493 505 517 0
470 482 494 506 518 0
471 483 495 507 519 0
472 484 496 508 520 0
473 485 497 509 521 0
474 486 498 510 522 0
475 487 499 511 523 0
476 488 500 512 524 0
477 489 501 513 525 0
478 490 502 514 526 0
479 491 503 515 527 0
480 492 504 516 528 0
-469 -7 -43 0
-469 7 43 0
-481 -43 -79 0
-481 43 79 0
-493 -79 -115 0
-493 79 115 0
-505 -115 -151 0
-505 115 151 0
-517 -151 -187 0
-517 151 187 0
-470 -13 -49 0
-470 13 49 0
-482 -49 -85 0
-482 49 85 0
-494 -85 -121 0
-494 85 121 0
-506 -121 -157 0
-506 121 157 0
-518 -157 -193 0
-518 157 193 0
-471 -19 -55 0
-471 19 55 0
-483 -55 -91 0
-483 55 91 0
-495 -91 -127 0
-495 91 127 0
-507 -127 -163 0
-507 127 163 0
-519 -163 -199 0
-519 163 199 0
-472 -25 -61 0
-472 25 61 0
-484 -61 -97 0
-484 61 97 0
-496 -97 -133 0
-496 97 133 0
-508 -133 -169 0
-508 133 169 0
-520 -169 -205 0
-520 169 205 0
-473 -31 -67 0
-473 31 67 0
-485 -67 -103 0
-485 67 103 0
-497 -103 -139 0
-497 103 139 0
-509 -139 -175 0
-509 139 175 0
-521 -175 -211 0
-521 175 211 0
-474 -14 -50 0
-474 14 50 0
-486 -50 -86 0
-486 50 86 0
-498 -86 -122 0
-498 86 122 0
-510 -122 -158 0
-510 122 158 0
-522 -158 -194 0
-522 158 194 0
-475 -20 -56 0
-475 20 56 0
-487 -56 -92 0
-487 56 92 0
-499 -92 -128 0
-499 92 128 0
-511 -128 -164 0
-511 128 164 0
-523 -164 -200 0
-523 164 200 0
-476 -26 -62 0
-476 26 62 0
-488 -62 -98 0
-488 62 98 0
-500 -98 -134 0
-500 98 134 0
-512 -134 -170 0
-512 134 170 0
-524 -170 -206 0
-524 170 206 0
-477 -32 -68 0
-477 32 68 0
-489 -68 -104 0
-489 68 104 0
-501 -104 -140 0
-501 104 140 0
-513 -140 -176 0
-513 140 176 0
-525 -176 -212 0
-525 176 212 0
-478 -28 -64 0
-478 28 64 0
-490 -64 -100 0
-490 64 100 0
-502 -100 -136 0
-502 100 136 0
-514 -136 -172 0
-514 136 172 0
-526 -172 -208 0
-526 172 208 0
-479 -34 -70 0
-479 34 70 0
-491 -70 -106 0
-491 70 106 0
-503 -106 -142 0
-503 106 142 0
-515 -142 -178 0
-515 142 178 0
-527 -178 -214 0
-527 178 214 0
-480 -35 -71 0
-480 35 71 0
-492 -71 -107 0
-492 71 107 0
-504 -107 -143 0
-504 107 143 0
-516 -143 -179 0
-516 143 179 0
-528 -179 -215 0
-528 179 215 0
-7 43 469 0
7 -43 469 0
-13 49 470 0
13 -49 470 0
-19 55 471 0
19 -55 471 0
-25 61 472 0
25 -61 472 0
-31 67 473 0
31 -67 473 0
-14 50 474 0
14 -50 474 0
-20 56 475 0
20 -56 475 0
-26 62 476 0
26 -62 476 0
-32 68 477 0
32 -68 477 0
-21 57 0
21 -57 0
-27 63 0
27 -63 0
-33 69 0
33 -69 0
-28 64 478 0
28 -64 478 0
-34 70 479 0
34 -70 479 0
-35 71 480 0
35 -71 480 0
-43 79 481 0
43 -79 481 0
-49 85 482 0
49 -85 482 0
-55 91 483 0
55 -91 483 0
-61 97 484 0
61 -97 484 0
-67 103 485 0
67 -103 485 0
-50 86 486 0
50 -86 486 0
-56 92 487 0
56 -92 487 0
-62 98 488 0
62 -98 488 0
-68 104 489 0
68 -104 489 0
-57 93 0
57 -93 0
-63 99 0
63 -99 0
-69 105 0
69 -105 0
-64 100 490 0
64 -100 490 0
-70 106 491 0
70 -106 491 0
-71 107 492 0
71 -107 492 0
-79 115 493 0
79 -115 493 0
-85 121 494 0
85 -121 494 0
-91 127 495 0
91 -127 495 0
-97 133 496 0
97 -133 496 0
-103 139 497 0
103 -139 497 0
-86 122 498 0
86 -122 498 0
-92 128 499 0
92 -128 499 0
-98 134 500 0
98 -134 500 0
-104 140 501 0
104 -140 501 0
-93 129 0
93 -129 0
-99 135 0
99 -135 0
-105 141 0
105 -141 0
-100 136 502 0
100 -136 502 0
-106 142 503 0
106 -142 503 0
-107 143 504 0
107 -143 504 0
-115 151 505 0
115 -151 505 0
-121 157 506 0
121 -157 506 0
-127 163 507 0
127 -163 507 0
-133 169 508 0
133 -169 508 0
-139 175 509 0
139 -175 509 0
-122 158 510 0
122 -158 510 0
-128 164 511 0
128 -164 511 0
-134 170 512 0
134 -170 512 0
-140 176 513 0
140 -176 513 0
-129 165 0
129 -165 0
-135 171 0
135 -171 0
-141 177 0
141 -177 0
-136 172 514 0
136 -172 514 0
-142 178 515 0
142 -178 515 0
-143 179 516 0
143 -179 516 0
-151 187 517 0
151 -187 517 0
-157 193 518 0
157 -193 518 0
-163 199 519 0
163 -199 519 0
-169 205 520 0
169 -205 520 0
-175 211 521 0
175 -211 521 0
-158 194 522 0
158 -194 522 0
-164 200 523 0
164 -200 523 0
-170 206 524 0
170 -206 524 0
-176 212 525 0
176 -212 525 0
-165 201 0
165 -201 0
-171 207 0
171 -207 0
-177 213 0
177 -213 0
-172 208 526 0
172 -208 526 0
-178 214 527 0
178 -214 527 0
-179 215 528 0
179 -215 528 0
-469 -470 0
-469 -471 0
-469 -472 0
-469 -473 0
-469 -474 0
-469 -475 0
-469 -476 0
-469 -477 0
-470 -469 0
-470 -471 0
-470 -472 0
-470 -473 0
-470 -474 0
-471 -469 0
-471 -470 0
-471 -472 0
-471 -473 0
-471 -475 0
-471 -478 0
-471 -479 0
-472 -469 0
-472 -470 0
-472 -471 0
-472 -473 0
-472 -476 0
-472 -478 0
-472 -480 0
-473 -469 0
-473 -470 0
-473 -471 0
-473 -472 0
-473 -477 0
-473 -479 0
-473 -480 0
-474 -469 0
-474 -470 0
-474 -475 0
-474 -476 0
-474 -477 0
-475 -469 0
-475 -471 0
-475 -474 0
-475 -476 0
-475 -477 0
-475 -478 0
-475 -479 0
-476 -469 0
-476 -472 0
-476 -474 0
-476 -475 0
-476 -477 0
-476 -478 0
-476 -480 0
-477 -469 0
-477 -473 0
-477 -474 0
-477 -475 0
-477 -476 0
-477 -479 0
-477 -480 0
-478 -471 0
-478 -472 0
-478 -475 0
-478 -476 0
-478 -479 0
-478 -480 0
-479 -471 0
-479 -473 0
-479 -475 0
-479 -477 0
-479 -478 0
-479 -480 0
-480 -472 0
-480 -473 0
-480 -476 0
-480 -477 0
-480 -478 0
-480 -479 0
-481 -482 0
-481 -483 0
-481 -484 0
-481 -485 0
-481 -486 0
-481 -487 0
-481 -488 0
-481 -489 0
-482 -481 0
-482 -483 0
-482 -484 0
-482 -485 0
-482 -486 0
-483 -481 0
-483 -482 0
-483 -484 0
-483 -485 0
-483 -487 0
-483 -490 0
-483 -491 0
-484 -481 0
-484 -482 0
-484 -483 0
-484 -485 0
-484 -488 0
-484 -490 0
-484 -492 0
-485 -481 0
-485 -482 0
-485 -483 0
-485 -484 0
-485 -489 0
-485 -491 0
-485 -492 0
-486 -481 0
-486 -482 0
-486 -487 0
-486 -488 0
-486 -489 0
-487 -481 0
-487 -483 0
-487 -486 0
-487 -488 0
-487 -489 0
-487 -490 0
-487 -491 0
-488 -481 0
-488 -484 0
-488 -486 0
-488 -487 0
-488 -489 0
-488 -490 0
-488 -492 0
-489 -481 0
-489 -485 0
-489 -486 0
-489 -487 0
-489 -488 0
-489 -491 0
-489 -492 0
-490 -483 0
-490 -484 0
-490 -487 0
-490 -488 0
-490 -491 0
-490 -492 0
-491 -483 0
-491 -485 0
-491 -487 0
-491 -489 0
-491 -490 0
-491 -492 0
-492 -484 0
-492 -485 0
-492 -488 0
-492 -489 0
-492 -490 0
-492 -491 0
-493 -494 0
-493 -495 0
-493 -496 0
-493 -497 0
-493 -498 0
-493 -499 0
-493 -500 0
-493 -501 0
-494 -493 0
-494 -495 0
-494 -496 0
-494 -497 0
-494 -498 0
-495 -493 0
-495 -494 0
-495 -496 0
-495 -497 0
-495 -499 0
-495 -502 0
-495 -503 0
-496 -493 0
-496 -494 0
-496 -495 0
-496 -497 0
-496 -500 0
-496 -502 0
-496 -504 0
-497 -493 0
-497 -494 0
-497 -495 0
-497 -496 0
-497 -501 0
-497 -503 0
-497 -504 0
-498 -493 0
-498 -494 0
-498 -499 0
-498 -500 0
-498 -501 0
-499 -493 0
-499 -495 0
-499 -498 0
-499 -500 0
-499 -501 0
-499 -502 0
-499 -503 0
-500 -493 0
-500 -496 0
-500 -498 0
-500 -499 0
-500 -501 0
-500 -502 0
-500 -504 0
-501 -493 0
-501 -497 0
-501 -498 0
-501 -499 0
-501 -500 0
-501 -503 0
-501 -504 0
-502 -495 0
-502 -496 0
-502 -499 0
-502 -500 0
-502 -503 0
-502 -504 0
-503 -495 0
-503 -497 0
-503 -499 0
-503 -501 0
-503 -502 0
-503 -504 0
-504 -496 0
-504 -497 0
-504 -500 0
-504 -501 0
-504 -502 0
-504 -503 0
-505 -506 0
-505 -507 0
-505 -508 0
-505 -509 0
-505 -510 0
-505 -511 0
-505 -512 0
-505 -513 0
-506 -505 0
-506 -507 0
-506 -508 0
-506 -509 0
-506 -510 0
-507 -505 0
-507 -506 0
-507 -508 0
-507 -509 0
-507 -511 0
-507 -514 0
-507 -515 0
-508 -505 0
-508 -506 0
-508 -507 0
-508 -509 0
-508 -512 0
-508 -514 0
-508 -516 0
-509 -505 0
-509 -506 0
-509 -507 0
-509 -508 0
-509 -513 0
-509 -515 0
-509 -516 0
-510 -505 0
-510 -506 0
-510 -511 0
-510 -512 0
-510 -513 0
-511 -505 0
-511 -507 0
-511 -510 0
-511 -512 0
-511 -513 0
-511 -514 0
-511 -515 0
-512 -505 0
-512 -508 0
-512 -510 0
-512 -511 0
-512 -513 0
-512 -514 0
-512 -516 0
-513 -505 0
-513 -509 0
-513 -510 0
-513 -511 0
-513 -512 0
-513 -515 0
-513 -516 0
-514 -507 0
-514 -508 0
-514 -511 0
-514 -512 0
-514 -515 0
-514 -516 0
-515 -507 0
-515 -509 0
-515 -511 0
-515 -513 0
-515 -514 0
-515 -516 0
-516 -508 0
-516 -509 0
-516 -512 0
-516 -513 0
-516 -514 0
-516 -515 0
-517 -518 0
-517 -519 0
-517 -520 0
-517 -521 0
-517 -522 0
-517 -523 0
-517 -524 0
-517 -525 0
-518 -517 0
-518 -519 0
-518 -520 0
-518 -521 0
-518 -522 0
-519 -517 0
-519 -518 0
-519 -520 0
-519 -521 0
-519 -523 0
-519 -526 0
-519 -527 0
-520 -517 0
-520 -518 0
-520 -519 0
-520 -521 0
-520 -524 0
-520 -526 0
-520 -528 0
-521 -517 0
-521 -518 0
-521 -519 0
-521 -520 0
-521 -525 0
-521 -527 0
-521 -528 0
-522 -517 0
-522 -518 0
-522 -523 0
-522 -524 0
-522 -525 0
-523 -517 0
-523 -519 0
-523 -522 0
-523 -524 0
-523 -525 0
-523 -526 0
-523 -527 0
-524 -517 0
-524 -520 0
-524 -522 0
-524 -523 0
-524 -525 0
-524 -526 0
-524 -528 0
-525 -517 0
-525 -521 0
-525 -522 0
-525 -523 0
-525 -524 0
-525 -527 0
-525 -528 0
-526 -519 0
-526 -520 0
-526 -523 0
-526 -524 0
-526 -527 0
-526 -528 0
-527 -519 0
-527 -521 0
-527 -523 0
-527 -525 0
-527 -526 0
-527 -528 0
-528 -520 0
-528 -521 0
-528 -524 0
-528 -525 0
-528 -526 0
-528 -527 0